NAME nominalQP
ROWS
 N  OBJ
 L  quad_0  
 L  quad_1  
COLUMNS
    C0        OBJ       -1.25
    C0        quad_1    -0.262
    C1        OBJ       0.35
    C1        quad_1    -0.944
    C2        OBJ       1.398
    C3        OBJ       1.401
    C3        quad_1    1.001
    C4        OBJ       0.585
    C4        quad_0    -1.737
    C5        OBJ       0.786
    C5        quad_1    1.602
    C6        OBJ       -0.432
    C6        quad_1    1.752
    C7        OBJ       -0.063
    C7        quad_0    0.685
    C8        OBJ       -0.033
    C8        quad_0    0.047
    C9        OBJ       -1.289
RHS
    RHS1      OBJ       0.886
    RHS1      quad_0    4.249
    RHS1      quad_1    13.076
BOUNDS
QUADOBJ
    C0        C0        2
    C1        C1        2
    C2        C2        2
    C3        C3        2
    C4        C4        2
    C5        C5        2
    C6        C6        2
    C7        C7        2
    C8        C8        2
    C9        C9        2
QCMATRIX   quad_0  
    C0        C0        3.9727139999999999e+00
    C0        C1        -1.3514909999999998e+00
    C1        C0        -1.3514909999999998e+00
    C0        C2        2.6481740000000000e+00
    C2        C0        2.6481740000000000e+00
    C0        C3        1.3437569999999999e+00
    C3        C0        1.3437569999999999e+00
    C0        C5        -0.611308
    C5        C0        -0.611308
    C0        C6        -1.1833380000000000e+00
    C6        C0        -1.1833380000000000e+00
    C0        C9        0.826987
    C9        C0        0.826987
    C1        C1        2.8916789999999999e+00
    C1        C2        -3.6686000000000010e-02
    C2        C1        -3.6686000000000010e-02
    C1        C3        3.8392000000000218e-02
    C3        C1        3.8392000000000218e-02
    C1        C5        1.7310699999999998e-01
    C5        C1        1.7310699999999998e-01
    C1        C6        -4.8843000000000206e-02
    C6        C1        -4.8843000000000206e-02
    C1        C9        -1.2408299999999994e-01
    C9        C1        -1.2408299999999994e-01
    C2        C2        5.6837519999999992e+00
    C2        C3        -2.9228200000000004e-01
    C3        C2        -2.9228200000000004e-01
    C2        C5        -9.4571399999999994e-01
    C5        C2        -9.4571399999999994e-01
    C2        C6        2.3227819999999997e+00
    C6        C2        2.3227819999999997e+00
    C2        C9        0.54074
    C9        C2        0.54074
    C3        C3        1.0837170000000000e+00
    C3        C5        1.9786000000000005e-02
    C5        C3        1.9786000000000005e-02
    C3        C6        -1.6798099999999998e+00
    C6        C3        -1.6798099999999998e+00
    C3        C9        0.299655
    C9        C3        0.299655
    C5        C5        0.265797
    C5        C6        -1.5726700000000002e-01
    C6        C5        -1.5726700000000002e-01
    C5        C9        -0.220325
    C9        C5        -0.220325
    C6        C6        3.5809050000000000e+00
    C6        C9        -0.474301
    C9        C6        -0.474301
    C9        C9        0.290202
QCMATRIX   quad_1  
    C2        C2        1.5494099999999997e+00
    C2        C4        6.5723999999999977e-02
    C4        C2        6.5723999999999977e-02
    C2        C7        -3.7462100000000009e-01
    C7        C2        -3.7462100000000009e-01
    C2        C8        -9.1331899999999988e-01
    C8        C2        -9.1331899999999988e-01
    C2        C9        9.8566299999999973e-01
    C9        C2        9.8566299999999973e-01
    C4        C4        3.4742229999999998e+00
    C4        C7        3.5424060000000002e+00
    C7        C4        3.5424060000000002e+00
    C4        C8        -1.2483040000000001e+00
    C8        C4        -1.2483040000000001e+00
    C4        C9        2.53199
    C9        C4        2.53199
    C7        C7        4.7867390000000007e+00
    C7        C8        -2.3613680000000001e+00
    C8        C7        -2.3613680000000001e+00
    C7        C9        2.92641
    C9        C7        2.92641
    C8        C8        3.3206549999999995e+00
    C8        C9        -3.1031469999999999e+00
    C9        C8        -3.1031469999999999e+00
    C9        C9        5.5932789999999990e+00
ENDATA
